\* Problem: Unknown *\

Maximize
 obj: + xp_0_0 + xp_0_1 + xp_0_2 + xp_0_3 + xp_0_4 + xp_0_5 + xp_1_0
 + xp_1_1 + xp_2_0 + xp_2_1 + xp_2_2 + xp_2_3 + xp_2_4 + xp_3_0 + xp_3_1
 + xp_3_2 + xp_3_3 + xp_4_0 + xp_4_1 + xp_5_0 + xp_5_1 + xp_5_2 + xp_6_0
 + xp_6_1 + xp_6_2 + xp_6_3 + xp_6_4 + xp_6_5 + xp_7_0 + xp_7_1 + xp_8_0
 + xp_8_1 + xp_9_0 + xp_10_0 + xp_10_1 + xp_11_0 + xp_11_1 + xp_11_2
 + xp_11_3 + xp_11_4 + xp_11_5 + xp_12_0 + xp_13_0 + xp_13_1 + xp_14_0
 + xp_14_1 + xp_15_0 + xp_16_0 + xp_16_1 + xp_17_0 + xp_17_1 + xp_17_2
 + xp_17_3 + xp_17_4 + xp_17_5 + xp_17_6 + xp_17_7 + xp_17_8 + xp_18_0
 + xp_18_1 + xp_18_2 + xp_18_3 + xp_18_4 + xp_19_0 + xp_19_1 + xp_19_2
 + xp_19_3 + xp_19_4 + xp_19_5 + xp_19_6 + xp_19_7 + xp_20_0 + xp_20_1
 + xp_20_2 + xp_20_3 + xp_21_0 + xp_21_1 + xp_21_2 + xp_21_3 + xp_21_4
 + xp_21_5 + xp_22_0 + xp_22_1 + xp_22_2 + xp_22_3 + xp_22_4 + xp_22_5
 + xp_23_0 + xp_23_1 + xp_23_2 + xp_23_3 + xp_23_4 + xp_23_5

Subject To
 r_1: 0 xp_0_0 <= 28.8106343283582
 r_2: + xp_23_2 + xp_22_3 + xp_18_4 + xp_18_1 + xp_17_7 + xp_6_5
 + xp_5_2 + xp_2_2 <= 27.4702380952381
 r_3: + xp_23_4 + xp_21_2 + xp_18_2 + xp_6_2 <= 29.7154017857143
 r_4: + xp_17_3 + xp_15_0 <= 29.7154017857143
 r_5: + xp_18_0 <= 27.2080291970803
 r_6: + xp_19_5 + xp_18_3 <= 28.6290322580645
 r_7: + xp_20_3 <= 28.8106343283582
 r_8: + xp_22_2 + xp_17_8 + xp_11_3 + xp_6_1 + xp_5_1 + xp_3_3 + xp_3_2
 + xp_2_1 <= 27.4702380952381
 r_9: + xp_23_1 + xp_11_5 + xp_11_1 + xp_6_4 + xp_3_1
 <= 28.6290322580645
 r_10: + xp_17_4 + xp_3_0 <= 28.6290322580645
 r_11: + xp_18_3 + xp_11_2 <= 27.2080291970803
 r_12: + xp_11_0 <= 28.6290322580645
 r_13: + xp_11_4 <= 28.6290322580645
 r_14: + xp_21_1 + xp_19_3 + xp_14_0 + xp_0_5 + xp_0_1
 <= 27.4702380952381
 r_15: + xp_21_0 + xp_19_6 <= 28.8106343283582
 r_16: + xp_22_1 + xp_21_3 + xp_19_7 + xp_0_3 + xp_0_2
 <= 28.8106343283582
 r_17: + xp_0_0 <= 27.2080291970803
 r_18: + xp_21_2 + xp_19_5 + xp_4_0 <= 28.8106343283582
 r_19: + xp_19_0 <= 28.8106343283582
 r_20: + xp_21_5 + xp_21_4 + xp_19_4 + xp_19_2 + xp_19_1 + xp_14_1
 + xp_4_1 + xp_0_4 <= 28.8106343283582
 r_21: + xp_20_1 <= 27.4702380952381
 r_22: + xp_21_4 + xp_21_1 + xp_7_1 <= 27.4702380952381
 r_23: + xp_23_5 + xp_22_4 + xp_22_3 + xp_22_2 + xp_17_7 + xp_3_3
 <= 27.4702380952381
 r_24: + xp_23_2 + xp_18_4 + xp_17_8 + xp_17_6 + xp_6_5 + xp_6_1
 + xp_3_2 + xp_0_5 <= 29.0077821011673
 r_25: 0 xp_0_0 <= 27.4702380952381
 r_26: + xp_18_1 + xp_0_4 + xp_0_1 <= 27.2080291970803
 r_27: + xp_11_4 + xp_11_3 + xp_4_1 <= 27.4702380952381
 r_28: + xp_19_3 + xp_19_2 + xp_10_1 <= 27.4702380952381
 r_29: + xp_20_2 <= 28.8106343283582
 r_30: + xp_2_0 <= 27.4702380952381
 r_31: + xp_23_4 + xp_23_1 + xp_18_2 + xp_11_5 + xp_6_4 + xp_6_2
 + xp_3_1 + xp_2_4 <= 29.0077821011673
 r_32: + xp_2_3 <= 30
 r_33: + xp_11_1 + xp_2_2 <= 29.7154017857143
 r_34: + xp_19_6 + xp_19_4 + xp_2_1 <= 28.6290322580645
 r_35: 0 xp_0_0 <= 28.8106343283582
 r_36: + xp_9_0 <= 27.4702380952381
 r_37: + xp_21_3 + xp_13_1 + xp_8_1 + xp_6_3 <= 29.0077821011673
 r_38: + xp_23_5 + xp_1_1 <= 30
 r_39: + xp_19_7 + xp_17_7 + xp_17_1 + xp_3_3 + xp_0_3 <= 30
 r_40: + xp_0_2 <= 27.2080291970803
 r_41: + xp_12_0 + xp_2_4 <= 29.0077821011673
 r_42: + xp_21_3 <= 29.0077821011673
 r_43: + xp_16_0 <= 29.0077821011673
 r_44: + xp_23_4 + xp_23_3 + xp_23_2 + xp_23_1 + xp_16_1
 <= 29.0077821011673
 r_45: + xp_17_8 + xp_17_6 + xp_17_2 + xp_11_5 + xp_3_2 + xp_3_1
 <= 29.0077821011673
 r_46: + xp_18_4 + xp_18_2 + xp_0_5 <= 27.2080291970803
 r_47: + xp_22_5 + xp_16_1 + xp_13_1 <= 30
 r_48: + xp_13_0 <= 29.0077821011673
 r_49: + xp_17_5 <= 30
 r_50: 0 xp_0_0 <= 27.2080291970803
 r_51: + xp_8_1 + xp_1_1 <= 30
 r_52: + xp_8_0 <= 29.0077821011673
 r_53: + xp_1_0 <= 30
 r_54: + xp_0_3 <= 27.2080291970803
 r_55: + xp_11_5 <= 29.7154017857143
 r_56: + xp_19_7 <= 28.6290322580645
 r_57: + xp_22_1 <= 27.2080291970803
 r_58: + xp_23_5 + xp_22_4 + xp_17_6 + xp_5_0 <= 27.2080291970803
 r_59: + xp_22_0 + xp_17_1 + xp_6_3 <= 27.2080291970803
 r_60: + xp_23_3 + xp_17_2 + xp_6_0 <= 27.2080291970803
 r_61: + xp_23_0 + xp_22_5 + xp_17_5 <= 27.2080291970803
 r_62: + xp_17_0 <= 27.2080291970803
 r_63: + xp_23_4 + xp_23_2 + xp_22_3 + xp_17_7 + xp_17_3 + xp_11_2
 + xp_6_5 + xp_6_2 + xp_5_2 <= 27.2080291970803
 r_64: + xp_23_1 + xp_22_2 + xp_17_8 + xp_17_4 + xp_6_4 + xp_6_1
 + xp_5_1 <= 27.2080291970803
 r_65: + xp_21_4 + xp_20_1 + xp_19_2 + xp_14_1 + xp_11_4 + xp_10_1
 + xp_7_1 + xp_4_1 + xp_2_3 + xp_0_4 <= 27.4702380952381
 r_66: + xp_21_5 + xp_20_2 + xp_19_4 + xp_7_0 <= 30
 r_67: + xp_20_3 + xp_19_1 + xp_10_0 <= 28.6290322580645
 r_68: + xp_20_0 <= 28.8106343283582

Bounds
 0 <= xp_0_0 <= 28.1262947466578
 0 <= xp_0_1 <= 5.08577401395081
 0 <= xp_0_2 <= 14.4131792182305
 0 <= xp_0_3 <= 6.85655776421364
 0 <= xp_0_4 <= 5.78583770375404
 0 <= xp_0_5 <= 2.98558294454111
 0 <= xp_1_0 <= 19.9931282054408
 0 <= xp_1_1 <= 15.422089695965
 0 <= xp_2_0 <= 22.4433785459831
 0 <= xp_2_1 <= 1.87370525334219
 0 <= xp_2_2 <= 7.06931218059869
 0 <= xp_2_3 <= 0.62456841778073
 0 <= xp_2_4 <= 2.91008767251861
 0 <= xp_3_0 <= 24.5298564998644
 0 <= xp_3_1 <= 6.24570246196134
 0 <= xp_3_2 <= 0.83733197624279
 0 <= xp_3_3 <= 0.83733197624279
 0 <= xp_4_0 <= 24.1592184133621
 0 <= xp_4_1 <= 2.19629258303291
 0 <= xp_5_0 <= 15.3740480812304
 0 <= xp_5_1 <= 6.58887774909874
 0 <= xp_5_2 <= 4.39258516606583
 0 <= xp_6_0 <= 9.88331662364812
 0 <= xp_6_1 <= 1.97666332472962
 0 <= xp_6_2 <= 1.97666332472962
 0 <= xp_6_3 <= 5.92998997418887
 0 <= xp_6_4 <= 1.97666332472962
 0 <= xp_6_5 <= 1.97666332472962
 0 <= xp_7_0 <= 17.048721175793
 0 <= xp_7_1 <= 5.68290705859767
 0 <= xp_8_0 <= 18.7233942703556
 0 <= xp_8_1 <= 1.70212675185051
 0 <= xp_9_0 <= 18.9430235286589
 0 <= xp_10_0 <= 17.364438234604
 0 <= xp_10_1 <= 1.57858529405491
 0 <= xp_11_0 <= 27.4262310568546
 0 <= xp_11_1 <= 13.9807589752341
 0 <= xp_11_2 <= 7.70761199806188
 0 <= xp_11_3 <= 9.99313125279976
 0 <= xp_11_4 <= 0.425527116924118
 0 <= xp_11_5 <= 0.425527116924118
 0 <= xp_12_0 <= 17.7899699225666
 0 <= xp_13_0 <= 14.4131700761535
 0 <= xp_13_1 <= 2.8826340152307
 0 <= xp_14_0 <= 15.0995115083513
 0 <= xp_14_1 <= 1.37268286439557
 0 <= xp_15_0 <= 16.3074724290194
 0 <= xp_16_0 <= 14.3445359329337
 0 <= xp_16_1 <= 1.30404872117579
 0 <= xp_17_0 <= 28.2017900186803
 0 <= xp_17_1 <= 3.06107821656362
 0 <= xp_17_2 <= 1.53053910828181
 0 <= xp_17_3 <= 3.81605836301969
 0 <= xp_17_4 <= 1.53053910828181
 0 <= xp_17_5 <= 3.06107821656362
 0 <= xp_17_6 <= 1.53053910828181
 0 <= xp_17_7 <= 1.53053910828181
 0 <= xp_17_8 <= 1.53053910828181
 0 <= xp_18_0 <= 21.9080185157533
 0 <= xp_18_1 <= 2.73163432910868
 0 <= xp_18_2 <= 4.57103850947576
 0 <= xp_18_3 <= 13.2395285126145
 0 <= xp_18_4 <= 1.36581716455434
 0 <= xp_19_0 <= 28.7508677354771
 0 <= xp_19_1 <= 3.97391003586742
 0 <= xp_19_2 <= 2.64927335724494
 0 <= xp_19_3 <= 1.32463667862247
 0 <= xp_19_4 <= 1.32463667862247
 0 <= xp_19_5 <= 1.32463667862247
 0 <= xp_19_6 <= 2.64927335724494
 0 <= xp_19_7 <= 1.32463667862247
 0 <= xp_20_0 <= 27.6527168729221
 0 <= xp_20_1 <= 4.79752432554327
 0 <= xp_20_2 <= 6.28001267701347
 0 <= xp_20_3 <= 3.76800760620808
 0 <= xp_21_0 <= 27.3507266427551
 0 <= xp_21_1 <= 3.31502226095754
 0 <= xp_21_2 <= 3.31502226095754
 0 <= xp_21_3 <= 3.31502226095754
 0 <= xp_21_4 <= 1.10500742031918
 0 <= xp_21_5 <= 2.28551925473788
 0 <= xp_22_0 <= 17.5840720639458
 0 <= xp_22_1 <= 2.28551925473788
 0 <= xp_22_2 <= 1.93547826775925
 0 <= xp_22_3 <= 0.967739133879624
 0 <= xp_22_4 <= 10.1098161528312
 0 <= xp_22_5 <= 6.15647579025638
 0 <= xp_23_0 <= 18.2017702108468
 0 <= xp_23_1 <= 0.967739133879624
 0 <= xp_23_2 <= 0.967739133879624
 0 <= xp_23_3 <= 16.9663739170448
 0 <= xp_23_4 <= 0.967739133879624
 0 <= xp_23_5 <= 0.967739133879624

End
